c File: flat150_3_0.col
c
c SOURCE: Joseph Culberson (joe@cs.ualberta.ca)
c DESCRIPTION: Quasi-random coloring problem
c              generated with flatness = 0
c                             probability = 0.048
c                             known coloring = 3
c                             random seed = 1012
c              Creation Date:  Wed Feb 24 10:37:16 1999
c Maximum degree = 8 Minimum degree = 1
c COLOR VERIFICATION: Using the permuted order
c under simple greedy yields the specified
c coloring number
c Color = 3 specified partitions = 3
c p edge 150 360
c cnf created by edge2cnf
p cnf 450 1680
-1 -2 0
-1 -3 0
-2 -3 0
1 2 3 0
-4 -5 0
-4 -6 0
-5 -6 0
4 5 6 0
-7 -8 0
-7 -9 0
-8 -9 0
7 8 9 0
-10 -11 0
-10 -12 0
-11 -12 0
10 11 12 0
-13 -14 0
-13 -15 0
-14 -15 0
13 14 15 0
-16 -17 0
-16 -18 0
-17 -18 0
16 17 18 0
-19 -20 0
-19 -21 0
-20 -21 0
19 20 21 0
-22 -23 0
-22 -24 0
-23 -24 0
22 23 24 0
-25 -26 0
-25 -27 0
-26 -27 0
25 26 27 0
-28 -29 0
-28 -30 0
-29 -30 0
28 29 30 0
-31 -32 0
-31 -33 0
-32 -33 0
31 32 33 0
-34 -35 0
-34 -36 0
-35 -36 0
34 35 36 0
-37 -38 0
-37 -39 0
-38 -39 0
37 38 39 0
-40 -41 0
-40 -42 0
-41 -42 0
40 41 42 0
-43 -44 0
-43 -45 0
-44 -45 0
43 44 45 0
-46 -47 0
-46 -48 0
-47 -48 0
46 47 48 0
-49 -50 0
-49 -51 0
-50 -51 0
49 50 51 0
-52 -53 0
-52 -54 0
-53 -54 0
52 53 54 0
-55 -56 0
-55 -57 0
-56 -57 0
55 56 57 0
-58 -59 0
-58 -60 0
-59 -60 0
58 59 60 0
-61 -62 0
-61 -63 0
-62 -63 0
61 62 63 0
-64 -65 0
-64 -66 0
-65 -66 0
64 65 66 0
-67 -68 0
-67 -69 0
-68 -69 0
67 68 69 0
-70 -71 0
-70 -72 0
-71 -72 0
70 71 72 0
-73 -74 0
-73 -75 0
-74 -75 0
73 74 75 0
-76 -77 0
-76 -78 0
-77 -78 0
76 77 78 0
-79 -80 0
-79 -81 0
-80 -81 0
79 80 81 0
-82 -83 0
-82 -84 0
-83 -84 0
82 83 84 0
-85 -86 0
-85 -87 0
-86 -87 0
85 86 87 0
-88 -89 0
-88 -90 0
-89 -90 0
88 89 90 0
-91 -92 0
-91 -93 0
-92 -93 0
91 92 93 0
-94 -95 0
-94 -96 0
-95 -96 0
94 95 96 0
-97 -98 0
-97 -99 0
-98 -99 0
97 98 99 0
-100 -101 0
-100 -102 0
-101 -102 0
100 101 102 0
-103 -104 0
-103 -105 0
-104 -105 0
103 104 105 0
-106 -107 0
-106 -108 0
-107 -108 0
106 107 108 0
-109 -110 0
-109 -111 0
-110 -111 0
109 110 111 0
-112 -113 0
-112 -114 0
-113 -114 0
112 113 114 0
-115 -116 0
-115 -117 0
-116 -117 0
115 116 117 0
-118 -119 0
-118 -120 0
-119 -120 0
118 119 120 0
-121 -122 0
-121 -123 0
-122 -123 0
121 122 123 0
-124 -125 0
-124 -126 0
-125 -126 0
124 125 126 0
-127 -128 0
-127 -129 0
-128 -129 0
127 128 129 0
-130 -131 0
-130 -132 0
-131 -132 0
130 131 132 0
-133 -134 0
-133 -135 0
-134 -135 0
133 134 135 0
-136 -137 0
-136 -138 0
-137 -138 0
136 137 138 0
-139 -140 0
-139 -141 0
-140 -141 0
139 140 141 0
-142 -143 0
-142 -144 0
-143 -144 0
142 143 144 0
-145 -146 0
-145 -147 0
-146 -147 0
145 146 147 0
-148 -149 0
-148 -150 0
-149 -150 0
148 149 150 0
-151 -152 0
-151 -153 0
-152 -153 0
151 152 153 0
-154 -155 0
-154 -156 0
-155 -156 0
154 155 156 0
-157 -158 0
-157 -159 0
-158 -159 0
157 158 159 0
-160 -161 0
-160 -162 0
-161 -162 0
160 161 162 0
-163 -164 0
-163 -165 0
-164 -165 0
163 164 165 0
-166 -167 0
-166 -168 0
-167 -168 0
166 167 168 0
-169 -170 0
-169 -171 0
-170 -171 0
169 170 171 0
-172 -173 0
-172 -174 0
-173 -174 0
172 173 174 0
-175 -176 0
-175 -177 0
-176 -177 0
175 176 177 0
-178 -179 0
-178 -180 0
-179 -180 0
178 179 180 0
-181 -182 0
-181 -183 0
-182 -183 0
181 182 183 0
-184 -185 0
-184 -186 0
-185 -186 0
184 185 186 0
-187 -188 0
-187 -189 0
-188 -189 0
187 188 189 0
-190 -191 0
-190 -192 0
-191 -192 0
190 191 192 0
-193 -194 0
-193 -195 0
-194 -195 0
193 194 195 0
-196 -197 0
-196 -198 0
-197 -198 0
196 197 198 0
-199 -200 0
-199 -201 0
-200 -201 0
199 200 201 0
-202 -203 0
-202 -204 0
-203 -204 0
202 203 204 0
-205 -206 0
-205 -207 0
-206 -207 0
205 206 207 0
-208 -209 0
-208 -210 0
-209 -210 0
208 209 210 0
-211 -212 0
-211 -213 0
-212 -213 0
211 212 213 0
-214 -215 0
-214 -216 0
-215 -216 0
214 215 216 0
-217 -218 0
-217 -219 0
-218 -219 0
217 218 219 0
-220 -221 0
-220 -222 0
-221 -222 0
220 221 222 0
-223 -224 0
-223 -225 0
-224 -225 0
223 224 225 0
-226 -227 0
-226 -228 0
-227 -228 0
226 227 228 0
-229 -230 0
-229 -231 0
-230 -231 0
229 230 231 0
-232 -233 0
-232 -234 0
-233 -234 0
232 233 234 0
-235 -236 0
-235 -237 0
-236 -237 0
235 236 237 0
-238 -239 0
-238 -240 0
-239 -240 0
238 239 240 0
-241 -242 0
-241 -243 0
-242 -243 0
241 242 243 0
-244 -245 0
-244 -246 0
-245 -246 0
244 245 246 0
-247 -248 0
-247 -249 0
-248 -249 0
247 248 249 0
-250 -251 0
-250 -252 0
-251 -252 0
250 251 252 0
-253 -254 0
-253 -255 0
-254 -255 0
253 254 255 0
-256 -257 0
-256 -258 0
-257 -258 0
256 257 258 0
-259 -260 0
-259 -261 0
-260 -261 0
259 260 261 0
-262 -263 0
-262 -264 0
-263 -264 0
262 263 264 0
-265 -266 0
-265 -267 0
-266 -267 0
265 266 267 0
-268 -269 0
-268 -270 0
-269 -270 0
268 269 270 0
-271 -272 0
-271 -273 0
-272 -273 0
271 272 273 0
-274 -275 0
-274 -276 0
-275 -276 0
274 275 276 0
-277 -278 0
-277 -279 0
-278 -279 0
277 278 279 0
-280 -281 0
-280 -282 0
-281 -282 0
280 281 282 0
-283 -284 0
-283 -285 0
-284 -285 0
283 284 285 0
-286 -287 0
-286 -288 0
-287 -288 0
286 287 288 0
-289 -290 0
-289 -291 0
-290 -291 0
289 290 291 0
-292 -293 0
-292 -294 0
-293 -294 0
292 293 294 0
-295 -296 0
-295 -297 0
-296 -297 0
295 296 297 0
-298 -299 0
-298 -300 0
-299 -300 0
298 299 300 0
-301 -302 0
-301 -303 0
-302 -303 0
301 302 303 0
-304 -305 0
-304 -306 0
-305 -306 0
304 305 306 0
-307 -308 0
-307 -309 0
-308 -309 0
307 308 309 0
-310 -311 0
-310 -312 0
-311 -312 0
310 311 312 0
-313 -314 0
-313 -315 0
-314 -315 0
313 314 315 0
-316 -317 0
-316 -318 0
-317 -318 0
316 317 318 0
-319 -320 0
-319 -321 0
-320 -321 0
319 320 321 0
-322 -323 0
-322 -324 0
-323 -324 0
322 323 324 0
-325 -326 0
-325 -327 0
-326 -327 0
325 326 327 0
-328 -329 0
-328 -330 0
-329 -330 0
328 329 330 0
-331 -332 0
-331 -333 0
-332 -333 0
331 332 333 0
-334 -335 0
-334 -336 0
-335 -336 0
334 335 336 0
-337 -338 0
-337 -339 0
-338 -339 0
337 338 339 0
-340 -341 0
-340 -342 0
-341 -342 0
340 341 342 0
-343 -344 0
-343 -345 0
-344 -345 0
343 344 345 0
-346 -347 0
-346 -348 0
-347 -348 0
346 347 348 0
-349 -350 0
-349 -351 0
-350 -351 0
349 350 351 0
-352 -353 0
-352 -354 0
-353 -354 0
352 353 354 0
-355 -356 0
-355 -357 0
-356 -357 0
355 356 357 0
-358 -359 0
-358 -360 0
-359 -360 0
358 359 360 0
-361 -362 0
-361 -363 0
-362 -363 0
361 362 363 0
-364 -365 0
-364 -366 0
-365 -366 0
364 365 366 0
-367 -368 0
-367 -369 0
-368 -369 0
367 368 369 0
-370 -371 0
-370 -372 0
-371 -372 0
370 371 372 0
-373 -374 0
-373 -375 0
-374 -375 0
373 374 375 0
-376 -377 0
-376 -378 0
-377 -378 0
376 377 378 0
-379 -380 0
-379 -381 0
-380 -381 0
379 380 381 0
-382 -383 0
-382 -384 0
-383 -384 0
382 383 384 0
-385 -386 0
-385 -387 0
-386 -387 0
385 386 387 0
-388 -389 0
-388 -390 0
-389 -390 0
388 389 390 0
-391 -392 0
-391 -393 0
-392 -393 0
391 392 393 0
-394 -395 0
-394 -396 0
-395 -396 0
394 395 396 0
-397 -398 0
-397 -399 0
-398 -399 0
397 398 399 0
-400 -401 0
-400 -402 0
-401 -402 0
400 401 402 0
-403 -404 0
-403 -405 0
-404 -405 0
403 404 405 0
-406 -407 0
-406 -408 0
-407 -408 0
406 407 408 0
-409 -410 0
-409 -411 0
-410 -411 0
409 410 411 0
-412 -413 0
-412 -414 0
-413 -414 0
412 413 414 0
-415 -416 0
-415 -417 0
-416 -417 0
415 416 417 0
-418 -419 0
-418 -420 0
-419 -420 0
418 419 420 0
-421 -422 0
-421 -423 0
-422 -423 0
421 422 423 0
-424 -425 0
-424 -426 0
-425 -426 0
424 425 426 0
-427 -428 0
-427 -429 0
-428 -429 0
427 428 429 0
-430 -431 0
-430 -432 0
-431 -432 0
430 431 432 0
-433 -434 0
-433 -435 0
-434 -435 0
433 434 435 0
-436 -437 0
-436 -438 0
-437 -438 0
436 437 438 0
-439 -440 0
-439 -441 0
-440 -441 0
439 440 441 0
-442 -443 0
-442 -444 0
-443 -444 0
442 443 444 0
-445 -446 0
-445 -447 0
-446 -447 0
445 446 447 0
-448 -449 0
-448 -450 0
-449 -450 0
448 449 450 0
-184 -1 0
-185 -2 0
-186 -3 0
-205 -1 0
-206 -2 0
-207 -3 0
-334 -1 0
-335 -2 0
-336 -3 0
-415 -1 0
-416 -2 0
-417 -3 0
-46 -4 0
-47 -5 0
-48 -6 0
-136 -4 0
-137 -5 0
-138 -6 0
-145 -4 0
-146 -5 0
-147 -6 0
-250 -4 0
-251 -5 0
-252 -6 0
-328 -4 0
-329 -5 0
-330 -6 0
-400 -4 0
-401 -5 0
-402 -6 0
-421 -4 0
-422 -5 0
-423 -6 0
-76 -7 0
-77 -8 0
-78 -9 0
-106 -7 0
-107 -8 0
-108 -9 0
-388 -7 0
-389 -8 0
-390 -9 0
-445 -7 0
-446 -8 0
-447 -9 0
-16 -10 0
-17 -11 0
-18 -12 0
-85 -10 0
-86 -11 0
-87 -12 0
-97 -10 0
-98 -11 0
-99 -12 0
-286 -10 0
-287 -11 0
-288 -12 0
-313 -10 0
-314 -11 0
-315 -12 0
-328 -10 0
-329 -11 0
-330 -12 0
-337 -10 0
-338 -11 0
-339 -12 0
-388 -10 0
-389 -11 0
-390 -12 0
-322 -13 0
-323 -14 0
-324 -15 0
-22 -16 0
-23 -17 0
-24 -18 0
-142 -16 0
-143 -17 0
-144 -18 0
-253 -16 0
-254 -17 0
-255 -18 0
-364 -16 0
-365 -17 0
-366 -18 0
-397 -16 0
-398 -17 0
-399 -18 0
-22 -19 0
-23 -20 0
-24 -21 0
-58 -19 0
-59 -20 0
-60 -21 0
-247 -19 0
-248 -20 0
-249 -21 0
-397 -19 0
-398 -20 0
-399 -21 0
-40 -22 0
-41 -23 0
-42 -24 0
-49 -22 0
-50 -23 0
-51 -24 0
-235 -22 0
-236 -23 0
-237 -24 0
-340 -22 0
-341 -23 0
-342 -24 0
-436 -22 0
-437 -23 0
-438 -24 0
-94 -25 0
-95 -26 0
-96 -27 0
-109 -25 0
-110 -26 0
-111 -27 0
-439 -25 0
-440 -26 0
-441 -27 0
-37 -28 0
-38 -29 0
-39 -30 0
-199 -28 0
-200 -29 0
-201 -30 0
-346 -28 0
-347 -29 0
-348 -30 0
-379 -28 0
-380 -29 0
-381 -30 0
-253 -31 0
-254 -32 0
-255 -33 0
-64 -34 0
-65 -35 0
-66 -36 0
-154 -34 0
-155 -35 0
-156 -36 0
-211 -34 0
-212 -35 0
-213 -36 0
-250 -34 0
-251 -35 0
-252 -36 0
-355 -34 0
-356 -35 0
-357 -36 0
-70 -37 0
-71 -38 0
-72 -39 0
-100 -37 0
-101 -38 0
-102 -39 0
-121 -37 0
-122 -38 0
-123 -39 0
-301 -37 0
-302 -38 0
-303 -39 0
-115 -40 0
-116 -41 0
-117 -42 0
-193 -40 0
-194 -41 0
-195 -42 0
-373 -40 0
-374 -41 0
-375 -42 0
-67 -43 0
-68 -44 0
-69 -45 0
-151 -43 0
-152 -44 0
-153 -45 0
-166 -43 0
-167 -44 0
-168 -45 0
-229 -43 0
-230 -44 0
-231 -45 0
-250 -43 0
-251 -44 0
-252 -45 0
-277 -43 0
-278 -44 0
-279 -45 0
-370 -43 0
-371 -44 0
-372 -45 0
-400 -43 0
-401 -44 0
-402 -45 0
-172 -46 0
-173 -47 0
-174 -48 0
-187 -46 0
-188 -47 0
-189 -48 0
-196 -46 0
-197 -47 0
-198 -48 0
-223 -46 0
-224 -47 0
-225 -48 0
-238 -46 0
-239 -47 0
-240 -48 0
-316 -46 0
-317 -47 0
-318 -48 0
-112 -49 0
-113 -50 0
-114 -51 0
-178 -49 0
-179 -50 0
-180 -51 0
-250 -49 0
-251 -50 0
-252 -51 0
-274 -49 0
-275 -50 0
-276 -51 0
-181 -52 0
-182 -53 0
-183 -54 0
-184 -52 0
-185 -53 0
-186 -54 0
-253 -52 0
-254 -53 0
-255 -54 0
-265 -52 0
-266 -53 0
-267 -54 0
-295 -52 0
-296 -53 0
-297 -54 0
-415 -52 0
-416 -53 0
-417 -54 0
-85 -55 0
-86 -56 0
-87 -57 0
-178 -55 0
-179 -56 0
-180 -57 0
-325 -55 0
-326 -56 0
-327 -57 0
-328 -55 0
-329 -56 0
-330 -57 0
-436 -55 0
-437 -56 0
-438 -57 0
-64 -58 0
-65 -59 0
-66 -60 0
-106 -58 0
-107 -59 0
-108 -60 0
-109 -58 0
-110 -59 0
-111 -60 0
-115 -58 0
-116 -59 0
-117 -60 0
-349 -58 0
-350 -59 0
-351 -60 0
-109 -61 0
-110 -62 0
-111 -63 0
-331 -61 0
-332 -62 0
-333 -63 0
-415 -61 0
-416 -62 0
-417 -63 0
-424 -61 0
-425 -62 0
-426 -63 0
-103 -64 0
-104 -65 0
-105 -66 0
-193 -64 0
-194 -65 0
-195 -66 0
-259 -64 0
-260 -65 0
-261 -66 0
-301 -64 0
-302 -65 0
-303 -66 0
-133 -67 0
-134 -68 0
-135 -69 0
-331 -67 0
-332 -68 0
-333 -69 0
-76 -70 0
-77 -71 0
-78 -72 0
-163 -70 0
-164 -71 0
-165 -72 0
-247 -70 0
-248 -71 0
-249 -72 0
-274 -70 0
-275 -71 0
-276 -72 0
-133 -73 0
-134 -74 0
-135 -75 0
-202 -73 0
-203 -74 0
-204 -75 0
-205 -73 0
-206 -74 0
-207 -75 0
-256 -73 0
-257 -74 0
-258 -75 0
-268 -73 0
-269 -74 0
-270 -75 0
-166 -76 0
-167 -77 0
-168 -78 0
-190 -76 0
-191 -77 0
-192 -78 0
-298 -76 0
-299 -77 0
-300 -78 0
-409 -76 0
-410 -77 0
-411 -78 0
-208 -79 0
-209 -80 0
-210 -81 0
-292 -79 0
-293 -80 0
-294 -81 0
-178 -82 0
-179 -83 0
-180 -84 0
-181 -82 0
-182 -83 0
-183 -84 0
-208 -82 0
-209 -83 0
-210 -84 0
-289 -82 0
-290 -83 0
-291 -84 0
-310 -82 0
-311 -83 0
-312 -84 0
-322 -82 0
-323 -83 0
-324 -84 0
-382 -82 0
-383 -83 0
-384 -84 0
-178 -85 0
-179 -86 0
-180 -87 0
-217 -85 0
-218 -86 0
-219 -87 0
-238 -85 0
-239 -86 0
-240 -87 0
-376 -85 0
-377 -86 0
-378 -87 0
-379 -85 0
-380 -86 0
-381 -87 0
-385 -85 0
-386 -86 0
-387 -87 0
-160 -88 0
-161 -89 0
-162 -90 0
-235 -88 0
-236 -89 0
-237 -90 0
-253 -88 0
-254 -89 0
-255 -90 0
-328 -88 0
-329 -89 0
-330 -90 0
-409 -88 0
-410 -89 0
-411 -90 0
-103 -91 0
-104 -92 0
-105 -93 0
-376 -91 0
-377 -92 0
-378 -93 0
-436 -91 0
-437 -92 0
-438 -93 0
-442 -91 0
-443 -92 0
-444 -93 0
-154 -94 0
-155 -95 0
-156 -96 0
-103 -97 0
-104 -98 0
-105 -99 0
-124 -97 0
-125 -98 0
-126 -99 0
-235 -97 0
-236 -98 0
-237 -99 0
-337 -97 0
-338 -98 0
-339 -99 0
-187 -100 0
-188 -101 0
-189 -102 0
-277 -103 0
-278 -104 0
-279 -105 0
-433 -103 0
-434 -104 0
-435 -105 0
-127 -106 0
-128 -107 0
-129 -108 0
-187 -106 0
-188 -107 0
-189 -108 0
-325 -106 0
-326 -107 0
-327 -108 0
-430 -106 0
-431 -107 0
-432 -108 0
-442 -106 0
-443 -107 0
-444 -108 0
-184 -109 0
-185 -110 0
-186 -111 0
-211 -109 0
-212 -110 0
-213 -111 0
-271 -109 0
-272 -110 0
-273 -111 0
-280 -109 0
-281 -110 0
-282 -111 0
-346 -109 0
-347 -110 0
-348 -111 0
-217 -112 0
-218 -113 0
-219 -114 0
-433 -112 0
-434 -113 0
-435 -114 0
-133 -115 0
-134 -116 0
-135 -117 0
-142 -115 0
-143 -116 0
-144 -117 0
-160 -115 0
-161 -116 0
-162 -117 0
-226 -115 0
-227 -116 0
-228 -117 0
-301 -115 0
-302 -116 0
-303 -117 0
-409 -115 0
-410 -116 0
-411 -117 0
-301 -118 0
-302 -119 0
-303 -120 0
-391 -118 0
-392 -119 0
-393 -120 0
-295 -121 0
-296 -122 0
-297 -123 0
-322 -121 0
-323 -122 0
-324 -123 0
-406 -121 0
-407 -122 0
-408 -123 0
-154 -124 0
-155 -125 0
-156 -126 0
-316 -124 0
-317 -125 0
-318 -126 0
-418 -124 0
-419 -125 0
-420 -126 0
-445 -124 0
-446 -125 0
-447 -126 0
-199 -127 0
-200 -128 0
-201 -129 0
-247 -127 0
-248 -128 0
-249 -129 0
-361 -127 0
-362 -128 0
-363 -129 0
-316 -130 0
-317 -131 0
-318 -132 0
-364 -130 0
-365 -131 0
-366 -132 0
-400 -130 0
-401 -131 0
-402 -132 0
-406 -130 0
-407 -131 0
-408 -132 0
-166 -133 0
-167 -134 0
-168 -135 0
-169 -133 0
-170 -134 0
-171 -135 0
-226 -133 0
-227 -134 0
-228 -135 0
-208 -136 0
-209 -137 0
-210 -138 0
-316 -136 0
-317 -137 0
-318 -138 0
-325 -136 0
-326 -137 0
-327 -138 0
-268 -139 0
-269 -140 0
-270 -141 0
-361 -139 0
-362 -140 0
-363 -141 0
-430 -139 0
-431 -140 0
-432 -141 0
-313 -142 0
-314 -143 0
-315 -144 0
-331 -142 0
-332 -143 0
-333 -144 0
-181 -145 0
-182 -146 0
-183 -147 0
-226 -145 0
-227 -146 0
-228 -147 0
-427 -145 0
-428 -146 0
-429 -147 0
-436 -145 0
-437 -146 0
-438 -147 0
-166 -148 0
-167 -149 0
-168 -150 0
-295 -148 0
-296 -149 0
-297 -150 0
-376 -148 0
-377 -149 0
-378 -150 0
-385 -148 0
-386 -149 0
-387 -150 0
-394 -148 0
-395 -149 0
-396 -150 0
-205 -151 0
-206 -152 0
-207 -153 0
-229 -151 0
-230 -152 0
-231 -153 0
-253 -151 0
-254 -152 0
-255 -153 0
-220 -154 0
-221 -155 0
-222 -156 0
-448 -154 0
-449 -155 0
-450 -156 0
-181 -157 0
-182 -158 0
-183 -159 0
-166 -163 0
-167 -164 0
-168 -165 0
-196 -163 0
-197 -164 0
-198 -165 0
-217 -163 0
-218 -164 0
-219 -165 0
-280 -163 0
-281 -164 0
-282 -165 0
-418 -163 0
-419 -164 0
-420 -165 0
-367 -166 0
-368 -167 0
-369 -168 0
-376 -166 0
-377 -167 0
-378 -168 0
-223 -169 0
-224 -170 0
-225 -171 0
-265 -169 0
-266 -170 0
-267 -171 0
-325 -169 0
-326 -170 0
-327 -171 0
-412 -169 0
-413 -170 0
-414 -171 0
-421 -169 0
-422 -170 0
-423 -171 0
-340 -172 0
-341 -173 0
-342 -174 0
-364 -172 0
-365 -173 0
-366 -174 0
-385 -172 0
-386 -173 0
-387 -174 0
-391 -172 0
-392 -173 0
-393 -174 0
-319 -175 0
-320 -176 0
-321 -177 0
-304 -178 0
-305 -179 0
-306 -180 0
-313 -178 0
-314 -179 0
-315 -180 0
-298 -181 0
-299 -182 0
-300 -183 0
-307 -181 0
-308 -182 0
-309 -183 0
-373 -181 0
-374 -182 0
-375 -183 0
-211 -184 0
-212 -185 0
-213 -186 0
-214 -184 0
-215 -185 0
-216 -186 0
-241 -184 0
-242 -185 0
-243 -186 0
-403 -184 0
-404 -185 0
-405 -186 0
-208 -187 0
-209 -188 0
-210 -189 0
-256 -187 0
-257 -188 0
-258 -189 0
-298 -187 0
-299 -188 0
-300 -189 0
-394 -187 0
-395 -188 0
-396 -189 0
-196 -190 0
-197 -191 0
-198 -192 0
-253 -190 0
-254 -191 0
-255 -192 0
-310 -190 0
-311 -191 0
-312 -192 0
-286 -193 0
-287 -194 0
-288 -195 0
-319 -193 0
-320 -194 0
-321 -195 0
-349 -193 0
-350 -194 0
-351 -195 0
-442 -193 0
-443 -194 0
-444 -195 0
-199 -196 0
-200 -197 0
-201 -198 0
-388 -196 0
-389 -197 0
-390 -198 0
-400 -196 0
-401 -197 0
-402 -198 0
-427 -196 0
-428 -197 0
-429 -198 0
-442 -196 0
-443 -197 0
-444 -198 0
-247 -199 0
-248 -200 0
-249 -201 0
-313 -199 0
-314 -200 0
-315 -201 0
-385 -199 0
-386 -200 0
-387 -201 0
-412 -199 0
-413 -200 0
-414 -201 0
-325 -202 0
-326 -203 0
-327 -204 0
-301 -205 0
-302 -206 0
-303 -207 0
-412 -208 0
-413 -209 0
-414 -210 0
-280 -211 0
-281 -212 0
-282 -213 0
-391 -211 0
-392 -212 0
-393 -213 0
-394 -211 0
-395 -212 0
-396 -213 0
-328 -214 0
-329 -215 0
-330 -216 0
-367 -214 0
-368 -215 0
-369 -216 0
-412 -214 0
-413 -215 0
-414 -216 0
-349 -217 0
-350 -218 0
-351 -219 0
-448 -217 0
-449 -218 0
-450 -219 0
-322 -220 0
-323 -221 0
-324 -222 0
-361 -220 0
-362 -221 0
-363 -222 0
-229 -223 0
-230 -224 0
-231 -225 0
-232 -223 0
-233 -224 0
-234 -225 0
-406 -223 0
-407 -224 0
-408 -225 0
-256 -226 0
-257 -227 0
-258 -228 0
-337 -226 0
-338 -227 0
-339 -228 0
-427 -226 0
-428 -227 0
-429 -228 0
-247 -229 0
-248 -230 0
-249 -231 0
-259 -229 0
-260 -230 0
-261 -231 0
-313 -229 0
-314 -230 0
-315 -231 0
-352 -229 0
-353 -230 0
-354 -231 0
-394 -229 0
-395 -230 0
-396 -231 0
-259 -232 0
-260 -233 0
-261 -234 0
-301 -232 0
-302 -233 0
-303 -234 0
-433 -235 0
-434 -236 0
-435 -237 0
-352 -238 0
-353 -239 0
-354 -240 0
-418 -238 0
-419 -239 0
-420 -240 0
-331 -241 0
-332 -242 0
-333 -243 0
-373 -241 0
-374 -242 0
-375 -243 0
-268 -244 0
-269 -245 0
-270 -246 0
-436 -247 0
-437 -248 0
-438 -249 0
-322 -250 0
-323 -251 0
-324 -252 0
-331 -250 0
-332 -251 0
-333 -252 0
-379 -250 0
-380 -251 0
-381 -252 0
-370 -253 0
-371 -254 0
-372 -255 0
-424 -253 0
-425 -254 0
-426 -255 0
-436 -256 0
-437 -257 0
-438 -258 0
-289 -259 0
-290 -260 0
-291 -261 0
-307 -259 0
-308 -260 0
-309 -261 0
-388 -259 0
-389 -260 0
-390 -261 0
-412 -259 0
-413 -260 0
-414 -261 0
-268 -262 0
-269 -263 0
-270 -264 0
-286 -265 0
-287 -266 0
-288 -267 0
-319 -265 0
-320 -266 0
-321 -267 0
-397 -265 0
-398 -266 0
-399 -267 0
-337 -271 0
-338 -272 0
-339 -273 0
-385 -271 0
-386 -272 0
-387 -273 0
-427 -271 0
-428 -272 0
-429 -273 0
-301 -274 0
-302 -275 0
-303 -276 0
-310 -274 0
-311 -275 0
-312 -276 0
-337 -274 0
-338 -275 0
-339 -276 0
-352 -274 0
-353 -275 0
-354 -276 0
-301 -277 0
-302 -278 0
-303 -279 0
-367 -277 0
-368 -278 0
-369 -279 0
-409 -277 0
-410 -278 0
-411 -279 0
-430 -277 0
-431 -278 0
-432 -279 0
-310 -280 0
-311 -281 0
-312 -282 0
-340 -280 0
-341 -281 0
-342 -282 0
-421 -283 0
-422 -284 0
-423 -285 0
-436 -283 0
-437 -284 0
-438 -285 0
-292 -286 0
-293 -287 0
-294 -288 0
-319 -292 0
-320 -293 0
-321 -294 0
-379 -292 0
-380 -293 0
-381 -294 0
-430 -292 0
-431 -293 0
-432 -294 0
-337 -295 0
-338 -296 0
-339 -297 0
-382 -295 0
-383 -296 0
-384 -297 0
-367 -298 0
-368 -299 0
-369 -300 0
-391 -298 0
-392 -299 0
-393 -300 0
-310 -304 0
-311 -305 0
-312 -306 0
-406 -304 0
-407 -305 0
-408 -306 0
-343 -307 0
-344 -308 0
-345 -309 0
-358 -307 0
-359 -308 0
-360 -309 0
-382 -310 0
-383 -311 0
-384 -312 0
-412 -310 0
-413 -311 0
-414 -312 0
-367 -313 0
-368 -314 0
-369 -315 0
-325 -316 0
-326 -317 0
-327 -318 0
-391 -316 0
-392 -317 0
-393 -318 0
-439 -316 0
-440 -317 0
-441 -318 0
-442 -319 0
-443 -320 0
-444 -321 0
-337 -322 0
-338 -323 0
-339 -324 0
-376 -322 0
-377 -323 0
-378 -324 0
-328 -325 0
-329 -326 0
-330 -327 0
-361 -331 0
-362 -332 0
-363 -333 0
-424 -331 0
-425 -332 0
-426 -333 0
-394 -334 0
-395 -335 0
-396 -336 0
-412 -340 0
-413 -341 0
-414 -342 0
-403 -343 0
-404 -344 0
-405 -345 0
-397 -346 0
-398 -347 0
-399 -348 0
-430 -346 0
-431 -347 0
-432 -348 0
-358 -349 0
-359 -350 0
-360 -351 0
-427 -349 0
-428 -350 0
-429 -351 0
-433 -349 0
-434 -350 0
-435 -351 0
-379 -352 0
-380 -353 0
-381 -354 0
-373 -355 0
-374 -356 0
-375 -357 0
-430 -358 0
-431 -359 0
-432 -360 0
-385 -361 0
-386 -362 0
-387 -363 0
-409 -361 0
-410 -362 0
-411 -363 0
-412 -364 0
-413 -365 0
-414 -366 0
-448 -373 0
-449 -374 0
-450 -375 0
-439 -379 0
-440 -380 0
-441 -381 0
-397 -391 0
-398 -392 0
-399 -393 0
-430 -391 0
-431 -392 0
-432 -393 0
-442 -397 0
-443 -398 0
-444 -399 0
-448 -427 0
-449 -428 0
-450 -429 0
-445 -436 0
-446 -437 0
-447 -438 0
